Geographic Exponential Decay
20 17 287 129 74 96 263 184 41 148 122 14 261 49 4 43 120 163 159 240 286
p edge 320 642
e 0 298 1.0
e 1 253 15.0
e 1 8 32.0
e 1 217 24.0
e 1 79 8.0
e 1 228 48.0
e 1 282 1.0
e 1 2 20.0
e 1 311 43.0
e 1 7 14.0
e 3 57 1.0
e 4 273 66.0
e 4 284 90.0
e 4 114 53.0
e 4 262 29.0
e 4 296 30.0
e 4 124 58.0
e 4 219 39.0
e 4 285 37.0
e 4 31 41.0
e 4 95 76.0
e 4 107 7.0
e 4 94 17.0
e 4 100 70.0
e 4 78 69.0
e 4 278 84.0
e 4 117 40.0
e 4 274 68.0
e 5 233 2.0
e 6 184 66.0
e 7 256 4.0
e 9 199 4.0
e 10 213 21.0
e 10 19 1.0
e 11 81 4.0
e 12 252 4.0
e 13 291 1.0
e 14 90 100.0
e 14 177 88.0
e 14 238 44.0
e 14 222 77.0
e 14 260 84.0
e 14 67 75.0
e 14 129 90.0
e 14 187 56.0
e 14 84 11.0
e 14 57 29.0
e 14 104 15.0
e 14 60 27.0
e 14 178 36.0
e 14 313 49.0
e 14 12 3.0
e 14 233 31.0
e 14 300 7.0
e 15 8 15.0
e 15 36 21.0
e 15 125 20.0
e 15 173 4.0
e 15 225 15.0
e 16 222 6.0
e 16 197 5.0
e 17 196 100.0
e 17 129 79.0
e 17 90 83.0
e 17 25 74.0
e 17 155 40.0
e 17 253 52.0
e 17 290 1.0
e 17 303 32.0
e 17 268 16.0
e 17 181 43.0
e 17 180 58.0
e 17 111 45.0
e 17 172 77.0
e 17 291 42.0
e 17 73 26.0
e 17 305 68.0
e 17 269 32.0
e 18 68 1.0
e 20 64 1.0
e 21 180 3.0
e 21 121 5.0
e 21 294 1.0
e 22 15 21.0
e 22 102 2.0
e 22 8 3.0
e 23 71 11.0
e 23 14 23.0
e 24 83 3.0
e 24 137 5.0
e 25 276 5.0
e 26 256 9.0
e 26 231 6.0
e 26 293 5.0
e 27 47 5.0
e 28 249 5.0
e 29 227 6.0
e 29 287 52.0
e 29 181 11.0
e 30 304 5.0
e 31 208 4.0
e 32 317 13.0
e 32 174 3.0
e 33 107 1.0
e 34 301 1.0
e 34 318 4.0
e 35 144 3.0
e 35 202 1.0
e 36 2 13.0
e 36 275 16.0
e 36 70 22.0
e 36 297 15.0
e 37 61 10.0
e 37 199 3.0
e 37 289 1.0
e 38 159 79.0
e 38 61 1.0
e 38 259 11.0
e 39 34 1.0
e 40 270 44.0
e 41 20 73.0
e 41 203 38.0
e 41 65 63.0
e 41 267 30.0
e 41 219 70.0
e 41 70 56.0
e 41 172 61.0
e 41 257 71.0
e 41 206 3.0
e 41 294 28.0
e 41 313 21.0
e 41 174 77.0
e 41 220 12.0
e 41 298 72.0
e 41 117 91.0
e 41 247 14.0
e 41 26 83.0
e 42 109 4.0
e 43 133 64.0
e 43 192 50.0
e 43 11 65.0
e 43 157 84.0
e 43 224 49.0
e 43 309 21.0
e 43 264 58.0
e 43 190 98.0
e 43 129 90.0
e 43 217 13.0
e 43 229 53.0
e 43 161 96.0
e 43 216 99.0
e 43 236 3.0
e 43 162 19.0
e 43 195 47.0
e 43 149 93.0
e 44 267 9.0
e 45 25 2.0
e 45 13 2.0
e 46 286 20.0
e 46 277 2.0
e 47 164 14.0
e 48 300 2.0
e 49 47 3.0
e 49 129 85.0
e 49 151 93.0
e 49 73 49.0
e 49 125 51.0
e 49 56 78.0
e 49 249 64.0
e 49 51 53.0
e 49 140 42.0
e 49 21 25.0
e 49 257 97.0
e 49 189 30.0
e 49 279 11.0
e 49 268 11.0
e 49 193 89.0
e 49 126 62.0
e 49 117 35.0
e 50 285 7.0
e 50 78 13.0
e 50 0 4.0
e 52 213 23.0
e 53 54 2.0
e 55 26 18.0
e 55 214 1.0
e 55 145 14.0
e 55 186 20.0
e 55 146 3.0
e 58 167 1.0
e 59 249 1.0
e 59 214 1.0
e 60 189 1.0
e 60 127 18.0
e 60 32 11.0
e 60 199 20.0
e 62 63 1.0
e 63 90 4.0
e 65 152 5.0
e 66 185 12.0
e 66 11 2.0
e 66 88 7.0
e 67 143 1.0
e 69 142 5.0
e 70 20 6.0
e 70 150 4.0
e 70 253 19.0
e 71 108 4.0
e 71 183 12.0
e 72 206 2.0
e 72 5 1.0
e 74 1 95.0
e 74 145 30.0
e 74 177 76.0
e 74 68 32.0
e 74 59 36.0
e 74 171 96.0
e 74 61 71.0
e 74 249 81.0
e 74 256 47.0
e 74 315 77.0
e 74 294 40.0
e 74 55 6.0
e 74 189 61.0
e 74 271 84.0
e 74 65 27.0
e 74 135 99.0
e 74 89 28.0
e 75 41 59.0
e 76 208 12.0
e 76 78 1.0
e 76 180 7.0
e 76 304 13.0
e 76 30 10.0
e 77 317 16.0
e 77 1 4.0
e 77 71 15.0
e 77 83 3.0
e 77 34 14.0
e 78 234 16.0
e 78 152 6.0
e 80 100 2.0
e 80 103 4.0
e 81 290 1.0
e 82 72 4.0
e 85 273 4.0
e 86 5 16.0
e 86 7 8.0
e 86 61 6.0
e 86 203 12.0
e 86 106 18.0
e 87 254 10.0
e 87 59 10.0
e 87 311 5.0
e 88 25 1.0
e 91 36 1.0
e 92 0 1.0
e 92 116 3.0
e 93 54 2.0
e 93 286 78.0
e 96 223 9.0
e 96 1 46.0
e 96 247 19.0
e 96 7 90.0
e 96 53 53.0
e 96 25 59.0
e 96 26 32.0
e 96 172 89.0
e 96 145 69.0
e 96 134 4.0
e 96 254 69.0
e 96 280 92.0
e 96 152 11.0
e 96 120 40.0
e 96 201 59.0
e 96 140 53.0
e 96 251 44.0
e 97 220 2.0
e 98 268 5.0
e 98 202 4.0
e 99 62 2.0
e 101 268 5.0
e 102 169 2.0
e 104 91 1.0
e 105 290 1.0
e 106 0 1.0
e 108 20 10.0
e 108 107 10.0
e 109 76 13.0
e 110 143 1.0
e 110 279 2.0
e 111 286 26.0
e 112 212 2.0
e 112 0 1.0
e 113 195 4.0
e 113 66 5.0
e 115 300 1.0
e 115 69 5.0
e 115 123 1.0
e 116 263 17.0
e 116 49 99.0
e 116 183 30.0
e 116 182 14.0
e 116 65 37.0
e 116 312 17.0
e 116 27 28.0
e 116 152 1.0
e 118 21 5.0
e 119 169 1.0
e 120 116 66.0
e 120 113 78.0
e 120 285 64.0
e 120 32 24.0
e 120 297 36.0
e 120 168 70.0
e 120 302 78.0
e 120 305 29.0
e 120 45 72.0
e 120 288 57.0
e 120 206 26.0
e 120 69 91.0
e 120 311 27.0
e 120 196 22.0
e 120 290 70.0
e 120 193 31.0
e 122 163 13.0
e 122 151 98.0
e 122 255 89.0
e 122 274 35.0
e 122 81 28.0
e 122 307 68.0
e 122 97 20.0
e 122 231 58.0
e 122 204 80.0
e 122 128 28.0
e 122 223 63.0
e 122 94 16.0
e 122 118 57.0
e 122 153 42.0
e 122 14 87.0
e 122 46 59.0
e 122 35 16.0
e 124 316 2.0
e 126 263 50.0
e 127 314 3.0
e 128 210 1.0
e 129 233 48.0
e 129 111 99.0
e 129 294 41.0
e 129 10 20.0
e 129 261 23.0
e 129 204 23.0
e 129 139 63.0
e 129 166 97.0
e 129 251 62.0
e 129 62 35.0
e 129 297 76.0
e 129 295 7.0
e 129 318 5.0
e 130 75 1.0
e 131 303 2.0
e 132 309 7.0
e 135 47 14.0
e 135 254 20.0
e 135 150 12.0
e 135 236 2.0
e 136 78 7.0
e 136 311 23.0
e 136 259 8.0
e 138 30 1.0
e 138 111 4.0
e 140 280 7.0
e 141 259 2.0
e 141 75 2.0
e 142 219 1.0
e 146 86 11.0
e 147 172 1.0
e 148 110 78.0
e 148 28 24.0
e 148 37 19.0
e 148 285 30.0
e 148 15 52.0
e 148 225 59.0
e 148 81 39.0
e 148 12 37.0
e 148 265 25.0
e 148 22 33.0
e 148 84 91.0
e 148 59 91.0
e 148 247 1.0
e 148 204 84.0
e 148 106 73.0
e 148 255 37.0
e 148 176 70.0
e 151 23 20.0
e 151 204 1.0
e 151 273 20.0
e 154 45 9.0
e 154 140 6.0
e 154 101 7.0
e 156 263 48.0
e 156 126 5.0
e 158 82 1.0
e 159 74 78.0
e 159 298 57.0
e 159 119 48.0
e 159 48 85.0
e 159 231 7.0
e 159 182 63.0
e 159 126 20.0
e 159 244 81.0
e 159 256 66.0
e 159 292 39.0
e 159 227 90.0
e 159 93 9.0
e 159 293 2.0
e 159 236 91.0
e 159 181 50.0
e 159 198 27.0
e 160 23 6.0
e 162 306 5.0
e 163 191 90.0
e 163 124 69.0
e 163 116 43.0
e 163 43 46.0
e 163 176 66.0
e 163 79 32.0
e 163 138 3.0
e 163 298 23.0
e 163 184 76.0
e 163 203 80.0
e 163 51 28.0
e 163 54 52.0
e 163 16 94.0
e 163 226 69.0
e 163 83 11.0
e 163 205 83.0
e 164 159 40.0
e 164 153 17.0
e 164 301 9.0
e 164 251 6.0
e 165 176 5.0
e 166 159 84.0
e 170 105 1.0
e 173 43 32.0
e 175 42 1.0
e 177 68 16.0
e 177 42 11.0
e 177 83 1.0
e 179 150 1.0
e 184 44 73.0
e 184 136 53.0
e 184 166 51.0
e 184 160 48.0
e 184 305 88.0
e 184 159 83.0
e 184 302 80.0
e 184 120 16.0
e 184 72 70.0
e 184 178 80.0
e 184 119 32.0
e 184 304 41.0
e 184 303 84.0
e 184 313 83.0
e 184 134 97.0
e 187 229 1.0
e 188 41 71.0
e 188 195 3.0
e 190 153 2.0
e 191 140 23.0
e 191 51 14.0
e 191 106 23.0
e 191 156 13.0
e 192 17 88.0
e 194 221 3.0
e 194 218 3.0
e 197 161 2.0
e 200 253 2.0
e 200 290 1.0
e 201 227 4.0
e 207 22 8.0
e 208 127 10.0
e 209 249 3.0
e 210 170 8.0
e 210 157 6.0
e 211 295 3.0
e 211 240 16.0
e 213 244 22.0
e 213 267 1.0
e 213 136 15.0
e 215 166 2.0
e 215 218 2.0
e 221 181 1.0
e 222 168 9.0
e 223 106 4.0
e 223 137 19.0
e 223 105 14.0
e 228 318 7.0
e 230 291 2.0
e 232 254 2.0
e 235 101 37.0
e 235 63 25.0
e 235 66 46.0
e 235 54 8.0
e 235 240 88.0
e 235 295 10.0
e 235 191 47.0
e 235 203 44.0
e 235 151 8.0
e 237 136 2.0
e 239 217 1.0
e 240 143 77.0
e 240 250 14.0
e 240 21 10.0
e 240 4 31.0
e 240 265 24.0
e 240 154 81.0
e 240 164 74.0
e 240 287 94.0
e 240 274 29.0
e 240 51 35.0
e 240 173 61.0
e 240 71 46.0
e 240 73 15.0
e 240 33 3.0
e 240 145 44.0
e 241 46 4.0
e 241 163 11.0
e 242 84 1.0
e 243 160 1.0
e 243 78 15.0
e 243 141 6.0
e 245 12 5.0
e 245 101 2.0
e 246 265 9.0
e 246 283 5.0
e 246 184 67.0
e 248 74 73.0
e 250 52 21.0
e 250 64 2.0
e 250 316 21.0
e 250 167 21.0
e 252 155 1.0
e 253 129 9.0
e 258 95 5.0
e 258 22 1.0
e 260 192 5.0
e 260 75 9.0
e 261 305 12.0
e 261 62 78.0
e 261 27 46.0
e 261 146 67.0
e 261 221 47.0
e 261 309 10.0
e 261 64 68.0
e 261 78 61.0
e 261 110 78.0
e 261 275 26.0
e 261 207 100.0
e 261 206 1.0
e 261 179 57.0
e 261 28 93.0
e 261 210 92.0
e 261 171 70.0
e 262 45 4.0
e 262 198 8.0
e 263 288 81.0
e 263 39 33.0
e 263 179 26.0
e 263 257 85.0
e 263 124 100.0
e 263 266 70.0
e 263 253 19.0
e 263 191 29.0
e 263 98 4.0
e 263 123 86.0
e 263 295 43.0
e 263 299 10.0
e 263 267 12.0
e 263 122 96.0
e 266 16 2.0
e 266 308 7.0
e 270 119 13.0
e 270 116 47.0
e 270 125 29.0
e 270 39 18.0
e 270 126 37.0
e 270 150 2.0
e 270 315 11.0
e 270 295 22.0
e 272 95 1.0
e 274 141 19.0
e 274 272 11.0
e 276 33 4.0
e 277 246 10.0
e 278 291 6.0
e 281 258 3.0
e 283 114 3.0
e 286 312 45.0
e 286 271 57.0
e 286 180 38.0
e 286 173 75.0
e 286 313 71.0
e 286 24 93.0
e 286 223 77.0
e 286 230 61.0
e 286 55 69.0
e 286 102 88.0
e 286 92 86.0
e 286 67 2.0
e 286 77 57.0
e 286 94 26.0
e 287 96 28.0
e 287 302 18.0
e 287 84 8.0
e 287 173 94.0
e 287 24 96.0
e 287 41 41.0
e 287 191 79.0
e 287 169 82.0
e 287 28 15.0
e 287 264 28.0
e 287 114 51.0
e 287 11 80.0
e 287 209 99.0
e 287 247 7.0
e 287 227 18.0
e 289 118 1.0
e 307 167 18.0
e 307 140 19.0
e 307 29 6.0
e 307 207 10.0
e 308 161 3.0
e 310 179 1.0
e 310 44 2.0
e 311 60 13.0
e 313 53 1.0
e 317 42 3.0
e 317 27 20.0
e 317 150 6.0
e 319 52 2.0
e 319 31 1.0
